21400
0 0 1 1 1 0 0 1 1 0 1 0 1 0 0 0 1 0 0 1 0 0 0 1 0 0 0 1 1 0 
7 19 2 27 2 12 2 27 27 28 4 28 10 3 28 7 3 10 27 27 27 16 23 2 10 27 27 19 4 2 19 19 4 16 27 12 8 8 16 16 7 8 12 4 8 19 3 2 19 10 27 16 2 16 8 12 7 8 27 7 4 2 7 8 3 12 23 19 28 12 7 12 19 8 23 23 10 23 8 16 10 2 8 7 4 10 19 2 27 7 28 19 7 7 2 3 28 12 2 28 28 16 12 7 4 2 4 27 27 3 19 4 27 12 12 8 28 7 28 8 8 12 28 19 4 16 2 12 19 28 28 16 12 10 23 8 3 3 28 10 12 27 12 12 7 2 16 16 27 7 27 28 23 28 8 28 2 16 3 3 3 27 10 2 23 27 23 4 3 2 23 8 19 10 4 2 27 10 4 10 2 16 2 19 12 8 28 23 27 2 2 2 19 4 7 12 7 2 10 19 
